benchmarks_CP/INST_36x36/30/inst36x36_30_23.dzn
S=6;
start=[|
-1,	-1,	-1,	14,	-1,	-1,	20,	-1,	-1,	-1,	6,	-1,	34,	-1,	-1,	23,	3,	-1,	-1,	-1,	-1,	10,	-1,	-1,	31,	-1,	-1,	32,	-1,	-1,	-1,	-1,	-1,	-1,	-1,	-1|
-1,	-1,	5,	-1,	-1,	1,	-1,	25,	15,	-1,	-1,	-1,	-1,	17,	-1,	8,	-1,	20,	22,	-1,	-1,	-1,	-1,	-1,	-1,	14,	36,	26,	24,	-1,	-1,	-1,	-1,	-1,	-1,	-1|
-1,	-1,	-1,	-1,	-1,	-1,	32,	-1,	-1,	-1,	4,	-1,	-1,	30,	25,	-1,	-1,	-1,	34,	-1,	-1,	15,	2,	-1,	8,	16,	-1,	33,	27,	28,	-1,	21,	-1,	-1,	26,	-1|
-1,	13,	-1,	-1,	-1,	-1,	-1,	-1,	-1,	-1,	-1,	-1,	-1,	-1,	-1,	-1,	-1,	-1,	-1,	-1,	32,	-1,	-1,	-1,	19,	-1,	-1,	-1,	25,	-1,	-1,	-1,	4,	-1,	22,	-1|
-1,	-1,	-1,	-1,	-1,	27,	26,	-1,	33,	2,	-1,	5,	16,	-1,	4,	31,	-1,	-1,	23,	-1,	-1,	-1,	7,	-1,	34,	-1,	-1,	-1,	-1,	6,	1,	-1,	-1,	-1,	10,	-1|
-1,	-1,	33,	-1,	24,	-1,	-1,	-1,	10,	-1,	-1,	16,	-1,	-1,	2,	-1,	-1,	-1,	-1,	-1,	-1,	-1,	31,	25,	23,	-1,	-1,	12,	30,	-1,	14,	28,	-1,	35,	-1,	-1|
-1,	-1,	-1,	19,	-1,	13,	30,	-1,	26,	-1,	-1,	18,	-1,	-1,	-1,	-1,	-1,	2,	-1,	12,	20,	-1,	-1,	-1,	-1,	-1,	29,	-1,	6,	-1,	-1,	-1,	15,	10,	-1,	-1|
-1,	-1,	-1,	28,	-1,	-1,	14,	-1,	-1,	-1,	10,	6,	-1,	35,	21,	19,	-1,	-1,	32,	-1,	-1,	36,	-1,	-1,	-1,	-1,	-1,	-1,	-1,	5,	-1,	-1,	-1,	27,	4,	-1|
-1,	10,	-1,	-1,	-1,	29,	-1,	-1,	-1,	33,	-1,	-1,	-1,	-1,	-1,	-1,	14,	27,	-1,	-1,	-1,	-1,	-1,	-1,	-1,	-1,	-1,	-1,	-1,	-1,	21,	-1,	8,	32,	-1,	-1|
21,	-1,	24,	27,	-1,	-1,	3,	-1,	13,	-1,	-1,	-1,	-1,	-1,	-1,	-1,	-1,	5,	-1,	-1,	-1,	-1,	-1,	-1,	11,	-1,	-1,	-1,	17,	-1,	-1,	-1,	16,	-1,	-1,	-1|
34,	-1,	-1,	-1,	36,	-1,	-1,	23,	-1,	29,	-1,	-1,	-1,	-1,	-1,	7,	-1,	-1,	-1,	-1,	30,	9,	-1,	-1,	-1,	-1,	-1,	-1,	-1,	22,	-1,	-1,	-1,	-1,	-1,	35|
-1,	-1,	-1,	26,	-1,	-1,	-1,	12,	8,	-1,	-1,	-1,	-1,	-1,	-1,	-1,	-1,	-1,	-1,	-1,	7,	-1,	-1,	34,	-1,	-1,	-1,	-1,	-1,	20,	2,	-1,	28,	-1,	-1,	-1|
-1,	16,	-1,	-1,	-1,	-1,	-1,	-1,	6,	-1,	-1,	-1,	-1,	-1,	-1,	-1,	-1,	-1,	-1,	-1,	-1,	32,	-1,	-1,	-1,	-1,	-1,	23,	-1,	-1,	35,	-1,	-1,	-1,	24,	-1|
-1,	26,	30,	25,	-1,	-1,	-1,	-1,	-1,	-1,	17,	-1,	32,	-1,	-1,	21,	-1,	-1,	-1,	-1,	13,	-1,	-1,	8,	-1,	1,	-1,	24,	-1,	27,	-1,	-1,	-1,	-1,	-1,	14|
-1,	7,	-1,	-1,	-1,	-1,	23,	-1,	-1,	13,	-1,	-1,	3,	-1,	-1,	22,	10,	17,	11,	-1,	-1,	-1,	-1,	-1,	-1,	6,	-1,	-1,	20,	-1,	-1,	-1,	-1,	-1,	8,	-1|
-1,	-1,	1,	-1,	-1,	-1,	5,	-1,	-1,	-1,	-1,	-1,	7,	-1,	-1,	27,	-1,	-1,	-1,	-1,	-1,	-1,	-1,	-1,	-1,	-1,	-1,	-1,	-1,	-1,	-1,	-1,	-1,	-1,	-1,	-1|
-1,	-1,	-1,	-1,	27,	24,	-1,	-1,	-1,	-1,	16,	-1,	28,	-1,	-1,	-1,	-1,	-1,	12,	-1,	-1,	-1,	-1,	-1,	14,	17,	-1,	29,	-1,	-1,	-1,	-1,	-1,	-1,	-1,	-1|
-1,	-1,	6,	-1,	-1,	-1,	-1,	-1,	-1,	-1,	-1,	-1,	-1,	14,	-1,	-1,	-1,	-1,	17,	-1,	-1,	-1,	-1,	-1,	-1,	9,	7,	-1,	-1,	33,	15,	25,	30,	-1,	-1,	-1|
-1,	6,	36,	7,	-1,	-1,	31,	-1,	-1,	-1,	-1,	34,	-1,	10,	-1,	-1,	12,	-1,	15,	-1,	24,	25,	14,	-1,	28,	-1,	9,	-1,	-1,	-1,	5,	29,	-1,	-1,	-1,	-1|
-1,	-1,	22,	-1,	-1,	-1,	21,	-1,	4,	16,	-1,	-1,	-1,	-1,	-1,	-1,	26,	-1,	35,	9,	-1,	-1,	-1,	3,	30,	-1,	25,	-1,	7,	-1,	27,	34,	-1,	28,	-1,	-1|
19,	-1,	-1,	-1,	9,	11,	18,	-1,	-1,	15,	5,	2,	-1,	-1,	14,	35,	-1,	-1,	1,	-1,	-1,	-1,	28,	-1,	36,	-1,	16,	-1,	-1,	-1,	17,	-1,	-1,	-1,	-1,	-1|
-1,	-1,	-1,	2,	-1,	-1,	-1,	8,	27,	-1,	9,	-1,	-1,	32,	17,	-1,	-1,	-1,	29,	-1,	-1,	-1,	-1,	-1,	-1,	-1,	-1,	3,	-1,	-1,	-1,	36,	-1,	-1,	-1,	-1|
33,	27,	-1,	-1,	-1,	-1,	-1,	-1,	-1,	-1,	32,	-1,	-1,	-1,	-1,	-1,	13,	-1,	-1,	-1,	-1,	-1,	-1,	-1,	-1,	8,	-1,	20,	-1,	-1,	-1,	9,	-1,	-1,	-1,	12|
-1,	4,	-1,	-1,	-1,	-1,	-1,	20,	28,	-1,	-1,	33,	22,	-1,	27,	9,	-1,	-1,	-1,	-1,	-1,	18,	21,	11,	-1,	29,	-1,	2,	-1,	-1,	7,	-1,	-1,	-1,	-1,	8|
-1,	-1,	2,	-1,	-1,	26,	-1,	-1,	-1,	-1,	-1,	-1,	15,	27,	-1,	-1,	-1,	14,	-1,	-1,	-1,	13,	4,	31,	7,	-1,	-1,	-1,	-1,	-1,	30,	-1,	-1,	-1,	-1,	-1|
3,	-1,	-1,	-1,	18,	35,	-1,	-1,	-1,	-1,	-1,	-1,	-1,	-1,	-1,	-1,	-1,	-1,	-1,	-1,	36,	26,	-1,	17,	-1,	-1,	-1,	30,	2,	-1,	-1,	-1,	-1,	-1,	-1,	-1|
-1,	-1,	-1,	-1,	-1,	21,	8,	1,	-1,	-1,	18,	26,	-1,	3,	31,	10,	-1,	-1,	-1,	22,	12,	34,	-1,	7,	-1,	-1,	-1,	17,	-1,	16,	-1,	-1,	-1,	-1,	-1,	-1|
-1,	-1,	-1,	-1,	-1,	-1,	34,	-1,	-1,	11,	29,	-1,	-1,	-1,	-1,	26,	-1,	-1,	-1,	-1,	28,	33,	30,	-1,	-1,	31,	24,	36,	-1,	18,	12,	-1,	1,	13,	20,	-1|
-1,	-1,	34,	23,	33,	7,	-1,	2,	-1,	31,	24,	27,	-1,	-1,	-1,	-1,	28,	-1,	-1,	20,	-1,	-1,	11,	1,	-1,	-1,	15,	-1,	-1,	-1,	4,	-1,	21,	-1,	-1,	17|
12,	-1,	-1,	-1,	-1,	-1,	-1,	-1,	-1,	-1,	-1,	-1,	-1,	-1,	32,	20,	-1,	22,	-1,	-1,	-1,	6,	-1,	-1,	-1,	4,	-1,	11,	-1,	-1,	-1,	-1,	24,	19,	-1,	2|
-1,	-1,	-1,	-1,	3,	-1,	-1,	-1,	-1,	6,	-1,	-1,	-1,	1,	-1,	-1,	-1,	-1,	-1,	10,	9,	-1,	36,	-1,	-1,	-1,	34,	-1,	-1,	-1,	-1,	-1,	35,	-1,	28,	-1|
-1,	-1,	-1,	-1,	-1,	-1,	-1,	3,	-1,	34,	-1,	-1,	-1,	-1,	-1,	16,	2,	-1,	-1,	-1,	-1,	17,	5,	-1,	-1,	-1,	-1,	-1,	12,	-1,	-1,	-1,	-1,	33,	-1,	21|
-1,	-1,	35,	22,	-1,	-1,	-1,	-1,	-1,	-1,	-1,	20,	-1,	-1,	-1,	-1,	-1,	-1,	-1,	-1,	11,	-1,	-1,	2,	24,	-1,	6,	-1,	-1,	-1,	-1,	-1,	29,	-1,	-1,	-1|
-1,	-1,	-1,	11,	-1,	-1,	33,	35,	2,	10,	-1,	-1,	-1,	-1,	-1,	17,	-1,	-1,	-1,	-1,	-1,	-1,	12,	-1,	-1,	30,	-1,	-1,	-1,	13,	-1,	-1,	-1,	-1,	-1,	31|
30,	-1,	21,	-1,	10,	5,	-1,	-1,	-1,	17,	-1,	-1,	-1,	28,	-1,	12,	18,	-1,	7,	-1,	-1,	-1,	-1,	6,	-1,	11,	-1,	-1,	9,	-1,	34,	14,	-1,	22,	25,	13|
-1,	29,	23,	-1,	16,	-1,	7,	-1,	-1,	-1,	25,	-1,	-1,	13,	35,	6,	-1,	-1,	-1,	-1,	-1,	20,	-1,	-1,	-1,	-1,	-1,	-1,	3,	-1,	-1,	24,	-1,	-1,	18,	-1|];
